# Solution for model JobShopModel
# Objective value = 95
y[0,0,3] 1
y[0,0,5] 0
y[0,0,6] 0
y[0,1,0] 0
y[0,1,2] 1
y[0,1,4] 0
y[0,2,2] 0
y[0,2,3] 0
y[0,2,6] 1
y[0,3,2] 1
y[0,3,3] 0
y[0,3,4] 0
y[1,0,1] 1
y[1,0,4] 0
y[1,0,6] 0
y[1,1,0] 1
y[1,1,1] 0
y[1,1,2] 0
y[1,2,2] 0
y[1,2,4] 0
y[1,2,6] 1
y[1,3,1] 0
y[1,3,4] 1
y[1,3,5] 0
y[2,0,0] 0
y[2,0,2] 1
y[2,0,5] 0
y[2,1,2] 0
y[2,1,5] 1
y[2,1,6] 0
y[2,2,0] 0
y[2,2,3] 1
y[2,2,4] 0
y[2,3,2] 1
y[2,3,3] 0
y[2,3,6] 0
y[3,0,1] 0
y[3,0,4] 1
y[3,0,5] 0
y[3,1,3] 0
y[3,1,4] 0
y[3,1,5] 1
y[3,2,2] 0
y[3,2,4] 0
y[3,2,6] 1
y[3,3,0] 1
y[3,3,4] 0
y[3,3,6] 0
y[4,0,0] 1
y[4,0,3] 0
y[4,0,5] 0
y[4,1,0] 0
y[4,1,5] 1
y[4,1,6] 0
y[4,2,2] 0
y[4,2,3] 1
y[4,2,4] 0
y[4,3,1] 0
y[4,3,2] 1
y[4,3,5] 0
y[5,0,0] 0
y[5,0,1] 1
y[5,0,5] 0
y[5,1,1] 1
y[5,1,4] 0
y[5,1,5] 0
y[5,2,1] 0
y[5,2,4] 0
y[5,2,6] 1
y[5,3,0] 1
y[5,3,3] 0
y[5,3,5] 0
y[6,0,2] 0
y[6,0,3] 0
y[6,0,4] 1
y[6,1,0] 0
y[6,1,2] 0
y[6,1,4] 1
y[6,2,0] 0
y[6,2,2] 0
y[6,2,5] 1
y[6,3,2] 1
y[6,3,4] 0
y[6,3,6] 0
y[7,0,1] 1
y[7,0,4] 0
y[7,0,5] 0
y[7,1,2] 0
y[7,1,3] 1
y[7,1,4] 0
y[7,2,0] 0
y[7,2,3] 1
y[7,2,4] 0
y[7,3,1] 1
y[7,3,2] 0
y[7,3,4] 0
x[0,0,0,0] 0
x[0,0,0,1] 0
x[0,0,0,2] 0
x[0,0,0,3] 0
x[0,0,1,0] 0
x[0,0,1,1] 0
x[0,0,1,2] 0
x[0,0,1,3] 0
x[0,0,2,0] 0
x[0,0,2,1] 0
x[0,0,2,2] 0
x[0,0,2,3] 0
x[0,0,3,0] 0
x[0,0,3,1] 0
x[0,0,3,2] 0
x[0,0,3,3] 0
x[0,0,4,0] 0
x[0,0,4,1] 0
x[0,0,4,2] 0
x[0,0,4,3] 0
x[0,0,5,0] 0
x[0,0,5,1] 0
x[0,0,5,2] 0
x[0,0,5,3] 0
x[0,0,6,0] 0
x[0,0,6,1] 0
x[0,0,6,2] 0
x[0,0,6,3] 0
x[0,0,7,0] 0
x[0,0,7,1] 1
x[0,0,7,2] 1
x[0,0,7,3] 0
x[0,1,0,0] 0
x[0,1,0,1] 0
x[0,1,0,2] 0
x[0,1,0,3] 1
x[0,1,1,0] 0
x[0,1,1,1] 0
x[0,1,1,2] 0
x[0,1,1,3] 1
x[0,1,2,0] 0
x[0,1,2,1] 0
x[0,1,2,2] 0
x[0,1,2,3] 0
x[0,1,3,0] 1
x[0,1,3,1] 0
x[0,1,3,2] 0
x[0,1,3,3] 1
x[0,1,4,0] 0
x[0,1,4,1] 0
x[0,1,4,2] 0
x[0,1,4,3] 0
x[0,1,5,0] 0
x[0,1,5,1] 0
x[0,1,5,2] 0
x[0,1,5,3] 0
x[0,1,6,0] 1
x[0,1,6,1] 0
x[0,1,6,2] 0
x[0,1,6,3] 0
x[0,1,7,0] 0
x[0,1,7,1] 0
x[0,1,7,2] 0
x[0,1,7,3] 0
x[0,2,0,0] 1
x[0,2,0,1] 1
x[0,2,0,2] 0
x[0,2,0,3] 0
x[0,2,1,0] 0
x[0,2,1,1] 0
x[0,2,1,2] 0
x[0,2,1,3] 0
x[0,2,2,0] 0
x[0,2,2,1] 0
x[0,2,2,2] 0
x[0,2,2,3] 0
x[0,2,3,0] 0
x[0,2,3,1] 0
x[0,2,3,2] 0
x[0,2,3,3] 0
x[0,2,4,0] 0
x[0,2,4,1] 0
x[0,2,4,2] 0
x[0,2,4,3] 0
x[0,2,5,0] 0
x[0,2,5,1] 0
x[0,2,5,2] 0
x[0,2,5,3] 0
x[0,2,6,0] 0
x[0,2,6,1] 0
x[0,2,6,2] 0
x[0,2,6,3] 0
x[0,2,7,0] 0
x[0,2,7,1] 0
x[0,2,7,2] 0
x[0,2,7,3] 0
x[0,3,0,0] 1
x[0,3,0,1] 0
x[0,3,0,2] 1
x[0,3,0,3] 0
x[0,3,1,0] 0
x[0,3,1,1] 0
x[0,3,1,2] 0
x[0,3,1,3] 0
x[0,3,2,0] 0
x[0,3,2,1] 0
x[0,3,2,2] 0
x[0,3,2,3] 0
x[0,3,3,0] 0
x[0,3,3,1] 0
x[0,3,3,2] 0
x[0,3,3,3] 0
x[0,3,4,0] 0
x[0,3,4,1] 0
x[0,3,4,2] 0
x[0,3,4,3] 0
x[0,3,5,0] 0
x[0,3,5,1] 0
x[0,3,5,2] 0
x[0,3,5,3] 0
x[0,3,6,0] 0
x[0,3,6,1] 0
x[0,3,6,2] 0
x[0,3,6,3] 0
x[0,3,7,0] 0
x[0,3,7,1] 0
x[0,3,7,2] 1
x[0,3,7,3] 0
x[1,0,0,0] 0
x[1,0,0,1] 0
x[1,0,0,2] 0
x[1,0,0,3] 0
x[1,0,1,0] 0
x[1,0,1,1] 1
x[1,0,1,2] 0
x[1,0,1,3] 1
x[1,0,2,0] 0
x[1,0,2,1] 0
x[1,0,2,2] 0
x[1,0,2,3] 0
x[1,0,3,0] 0
x[1,0,3,1] 0
x[1,0,3,2] 0
x[1,0,3,3] 0
x[1,0,4,0] 0
x[1,0,4,1] 0
x[1,0,4,2] 0
x[1,0,4,3] 0
x[1,0,5,0] 0
x[1,0,5,1] 0
x[1,0,5,2] 0
x[1,0,5,3] 0
x[1,0,6,0] 0
x[1,0,6,1] 0
x[1,0,6,2] 0
x[1,0,6,3] 0
x[1,0,7,0] 1
x[1,0,7,1] 0
x[1,0,7,2] 0
x[1,0,7,3] 1
x[1,1,0,0] 0
x[1,1,0,1] 0
x[1,1,0,2] 0
x[1,1,0,3] 0
x[1,1,1,0] 0
x[1,1,1,1] 0
x[1,1,1,2] 0
x[1,1,1,3] 1
x[1,1,2,0] 0
x[1,1,2,1] 0
x[1,1,2,2] 0
x[1,1,2,3] 0
x[1,1,3,0] 0
x[1,1,3,1] 0
x[1,1,3,2] 0
x[1,1,3,3] 1
x[1,1,4,0] 0
x[1,1,4,1] 1
x[1,1,4,2] 0
x[1,1,4,3] 0
x[1,1,5,0] 0
x[1,1,5,1] 1
x[1,1,5,2] 0
x[1,1,5,3] 0
x[1,1,6,0] 0
x[1,1,6,1] 1
x[1,1,6,2] 1
x[1,1,6,3] 0
x[1,1,7,0] 1
x[1,1,7,1] 0
x[1,1,7,2] 1
x[1,1,7,3] 1
x[1,2,0,0] 0
x[1,2,0,1] 0
x[1,2,0,2] 0
x[1,2,0,3] 0
x[1,2,1,0] 1
x[1,2,1,1] 1
x[1,2,1,2] 0
x[1,2,1,3] 0
x[1,2,2,0] 0
x[1,2,2,1] 0
x[1,2,2,2] 0
x[1,2,2,3] 0
x[1,2,3,0] 0
x[1,2,3,1] 0
x[1,2,3,2] 0
x[1,2,3,3] 0
x[1,2,4,0] 0
x[1,2,4,1] 0
x[1,2,4,2] 0
x[1,2,4,3] 1
x[1,2,5,0] 0
x[1,2,5,1] 0
x[1,2,5,2] 0
x[1,2,5,3] 0
x[1,2,6,0] 0
x[1,2,6,1] 0
x[1,2,6,2] 0
x[1,2,6,3] 1
x[1,2,7,0] 0
x[1,2,7,1] 0
x[1,2,7,2] 0
x[1,2,7,3] 0
x[1,3,0,0] 0
x[1,3,0,1] 0
x[1,3,0,2] 0
x[1,3,0,3] 0
x[1,3,1,0] 0
x[1,3,1,1] 0
x[1,3,1,2] 1
x[1,3,1,3] 0
x[1,3,2,0] 0
x[1,3,2,1] 0
x[1,3,2,2] 0
x[1,3,2,3] 0
x[1,3,3,0] 0
x[1,3,3,1] 0
x[1,3,3,2] 0
x[1,3,3,3] 0
x[1,3,4,0] 0
x[1,3,4,1] 0
x[1,3,4,2] 0
x[1,3,4,3] 0
x[1,3,5,0] 0
x[1,3,5,1] 0
x[1,3,5,2] 0
x[1,3,5,3] 0
x[1,3,6,0] 0
x[1,3,6,1] 0
x[1,3,6,2] 0
x[1,3,6,3] 0
x[1,3,7,0] 0
x[1,3,7,1] 0
x[1,3,7,2] 0
x[1,3,7,3] 0
x[2,0,0,0] 0
x[2,0,0,1] 0
x[2,0,0,2] 0
x[2,0,0,3] 0
x[2,0,1,0] 0
x[2,0,1,1] 0
x[2,0,1,2] 0
x[2,0,1,3] 0
x[2,0,2,0] 0
x[2,0,2,1] 0
x[2,0,2,2] 0
x[2,0,2,3] 1
x[2,0,3,0] 0
x[2,0,3,1] 0
x[2,0,3,2] 0
x[2,0,3,3] 0
x[2,0,4,0] 0
x[2,0,4,1] 0
x[2,0,4,2] 0
x[2,0,4,3] 1
x[2,0,5,0] 0
x[2,0,5,1] 0
x[2,0,5,2] 0
x[2,0,5,3] 0
x[2,0,6,0] 0
x[2,0,6,1] 0
x[2,0,6,2] 1
x[2,0,6,3] 1
x[2,0,7,0] 0
x[2,0,7,1] 0
x[2,0,7,2] 0
x[2,0,7,3] 0
x[2,1,0,0] 0
x[2,1,0,1] 0
x[2,1,0,2] 0
x[2,1,0,3] 0
x[2,1,1,0] 0
x[2,1,1,1] 0
x[2,1,1,2] 0
x[2,1,1,3] 0
x[2,1,2,0] 1
x[2,1,2,1] 0
x[2,1,2,2] 0
x[2,1,2,3] 0
x[2,1,3,0] 1
x[2,1,3,1] 1
x[2,1,3,2] 0
x[2,1,3,3] 0
x[2,1,4,0] 0
x[2,1,4,1] 1
x[2,1,4,2] 0
x[2,1,4,3] 1
x[2,1,5,0] 1
x[2,1,5,1] 0
x[2,1,5,2] 0
x[2,1,5,3] 1
x[2,1,6,0] 0
x[2,1,6,1] 1
x[2,1,6,2] 1
x[2,1,6,3] 0
x[2,1,7,0] 0
x[2,1,7,1] 0
x[2,1,7,2] 0
x[2,1,7,3] 0
x[2,2,0,0] 0
x[2,2,0,1] 0
x[2,2,0,2] 0
x[2,2,0,3] 0
x[2,2,1,0] 0
x[2,2,1,1] 0
x[2,2,1,2] 0
x[2,2,1,3] 0
x[2,2,2,0] 1
x[2,2,2,1] 0
x[2,2,2,2] 0
x[2,2,2,3] 0
x[2,2,3,0] 1
x[2,2,3,1] 0
x[2,2,3,2] 0
x[2,2,3,3] 0
x[2,2,4,0] 0
x[2,2,4,1] 0
x[2,2,4,2] 1
x[2,2,4,3] 0
x[2,2,5,0] 0
x[2,2,5,1] 0
x[2,2,5,2] 0
x[2,2,5,3] 0
x[2,2,6,0] 1
x[2,2,6,1] 1
x[2,2,6,2] 0
x[2,2,6,3] 1
x[2,2,7,0] 0
x[2,2,7,1] 1
x[2,2,7,2] 1
x[2,2,7,3] 0
x[2,3,0,0] 0
x[2,3,0,1] 0
x[2,3,0,2] 0
x[2,3,0,3] 0
x[2,3,1,0] 0
x[2,3,1,1] 0
x[2,3,1,2] 0
x[2,3,1,3] 0
x[2,3,2,0] 0
x[2,3,2,1] 1
x[2,3,2,2] 1
x[2,3,2,3] 0
x[2,3,3,0] 0
x[2,3,3,1] 0
x[2,3,3,2] 1
x[2,3,3,3] 0
x[2,3,4,0] 0
x[2,3,4,1] 0
x[2,3,4,2] 0
x[2,3,4,3] 1
x[2,3,5,0] 0
x[2,3,5,1] 0
x[2,3,5,2] 0
x[2,3,5,3] 0
x[2,3,6,0] 0
x[2,3,6,1] 0
x[2,3,6,2] 0
x[2,3,6,3] 1
x[2,3,7,0] 0
x[2,3,7,1] 1
x[2,3,7,2] 0
x[2,3,7,3] 0
x[3,0,0,0] 0
x[3,0,0,1] 0
x[3,0,0,2] 0
x[3,0,0,3] 0
x[3,0,1,0] 0
x[3,0,1,1] 0
x[3,0,1,2] 0
x[3,0,1,3] 0
x[3,0,2,0] 0
x[3,0,2,1] 0
x[3,0,2,2] 0
x[3,0,2,3] 0
x[3,0,3,0] 0
x[3,0,3,1] 0
x[3,0,3,2] 0
x[3,0,3,3] 0
x[3,0,4,0] 0
x[3,0,4,1] 0
x[3,0,4,2] 0
x[3,0,4,3] 1
x[3,0,5,0] 0
x[3,0,5,1] 0
x[3,0,5,2] 0
x[3,0,5,3] 0
x[3,0,6,0] 1
x[3,0,6,1] 1
x[3,0,6,2] 1
x[3,0,6,3] 0
x[3,0,7,0] 1
x[3,0,7,1] 0
x[3,0,7,2] 0
x[3,0,7,3] 1
x[3,1,0,0] 0
x[3,1,0,1] 0
x[3,1,0,2] 0
x[3,1,0,3] 0
x[3,1,1,0] 0
x[3,1,1,1] 0
x[3,1,1,2] 0
x[3,1,1,3] 0
x[3,1,2,0] 0
x[3,1,2,1] 0
x[3,1,2,2] 0
x[3,1,2,3] 0
x[3,1,3,0] 1
x[3,1,3,1] 0
x[3,1,3,2] 0
x[3,1,3,3] 0
x[3,1,4,0] 0
x[3,1,4,1] 0
x[3,1,4,2] 0
x[3,1,4,3] 1
x[3,1,5,0] 0
x[3,1,5,1] 0
x[3,1,5,2] 0
x[3,1,5,3] 0
x[3,1,6,0] 0
x[3,1,6,1] 1
x[3,1,6,2] 0
x[3,1,6,3] 0
x[3,1,7,0] 0
x[3,1,7,1] 0
x[3,1,7,2] 0
x[3,1,7,3] 0
x[3,2,0,0] 0
x[3,2,0,1] 0
x[3,2,0,2] 0
x[3,2,0,3] 0
x[3,2,1,0] 0
x[3,2,1,1] 0
x[3,2,1,2] 0
x[3,2,1,3] 0
x[3,2,2,0] 0
x[3,2,2,1] 0
x[3,2,2,2] 0
x[3,2,2,3] 0
x[3,2,3,0] 1
x[3,2,3,1] 1
x[3,2,3,2] 0
x[3,2,3,3] 0
x[3,2,4,0] 0
x[3,2,4,1] 0
x[3,2,4,2] 0
x[3,2,4,3] 0
x[3,2,5,0] 0
x[3,2,5,1] 0
x[3,2,5,2] 0
x[3,2,5,3] 0
x[3,2,6,0] 0
x[3,2,6,1] 0
x[3,2,6,2] 0
x[3,2,6,3] 1
x[3,2,7,0] 0
x[3,2,7,1] 0
x[3,2,7,2] 0
x[3,2,7,3] 0
x[3,3,0,0] 0
x[3,3,0,1] 0
x[3,3,0,2] 0
x[3,3,0,3] 0
x[3,3,1,0] 0
x[3,3,1,1] 0
x[3,3,1,2] 0
x[3,3,1,3] 0
x[3,3,2,0] 0
x[3,3,2,1] 0
x[3,3,2,2] 0
x[3,3,2,3] 0
x[3,3,3,0] 1
x[3,3,3,1] 1
x[3,3,3,2] 1
x[3,3,3,3] 0
x[3,3,4,0] 0
x[3,3,4,1] 1
x[3,3,4,2] 0
x[3,3,4,3] 0
x[3,3,5,0] 0
x[3,3,5,1] 0
x[3,3,5,2] 0
x[3,3,5,3] 0
x[3,3,6,0] 0
x[3,3,6,1] 0
x[3,3,6,2] 0
x[3,3,6,3] 0
x[3,3,7,0] 0
x[3,3,7,1] 0
x[3,3,7,2] 0
x[3,3,7,3] 0
x[4,0,0,0] 0
x[4,0,0,1] 0
x[4,0,0,2] 0
x[4,0,0,3] 0
x[4,0,1,0] 0
x[4,0,1,1] 0
x[4,0,1,2] 0
x[4,0,1,3] 0
x[4,0,2,0] 0
x[4,0,2,1] 0
x[4,0,2,2] 0
x[4,0,2,3] 0
x[4,0,3,0] 0
x[4,0,3,1] 0
x[4,0,3,2] 0
x[4,0,3,3] 0
x[4,0,4,0] 0
x[4,0,4,1] 1
x[4,0,4,2] 1
x[4,0,4,3] 1
x[4,0,5,0] 0
x[4,0,5,1] 0
x[4,0,5,2] 0
x[4,0,5,3] 0
x[4,0,6,0] 0
x[4,0,6,1] 1
x[4,0,6,2] 0
x[4,0,6,3] 0
x[4,0,7,0] 0
x[4,0,7,1] 1
x[4,0,7,2] 1
x[4,0,7,3] 0
x[4,1,0,0] 0
x[4,1,0,1] 0
x[4,1,0,2] 0
x[4,1,0,3] 0
x[4,1,1,0] 0
x[4,1,1,1] 0
x[4,1,1,2] 0
x[4,1,1,3] 0
x[4,1,2,0] 0
x[4,1,2,1] 0
x[4,1,2,2] 0
x[4,1,2,3] 0
x[4,1,3,0] 0
x[4,1,3,1] 0
x[4,1,3,2] 0
x[4,1,3,3] 0
x[4,1,4,0] 0
x[4,1,4,1] 0
x[4,1,4,2] 0
x[4,1,4,3] 1
x[4,1,5,0] 0
x[4,1,5,1] 0
x[4,1,5,2] 1
x[4,1,5,3] 0
x[4,1,6,0] 0
x[4,1,6,1] 0
x[4,1,6,2] 1
x[4,1,6,3] 0
x[4,1,7,0] 0
x[4,1,7,1] 0
x[4,1,7,2] 0
x[4,1,7,3] 0
x[4,2,0,0] 0
x[4,2,0,1] 0
x[4,2,0,2] 0
x[4,2,0,3] 0
x[4,2,1,0] 0
x[4,2,1,1] 0
x[4,2,1,2] 0
x[4,2,1,3] 0
x[4,2,2,0] 0
x[4,2,2,1] 0
x[4,2,2,2] 0
x[4,2,2,3] 0
x[4,2,3,0] 0
x[4,2,3,1] 0
x[4,2,3,2] 0
x[4,2,3,3] 0
x[4,2,4,0] 0
x[4,2,4,1] 0
x[4,2,4,2] 0
x[4,2,4,3] 1
x[4,2,5,0] 0
x[4,2,5,1] 0
x[4,2,5,2] 0
x[4,2,5,3] 0
x[4,2,6,0] 0
x[4,2,6,1] 0
x[4,2,6,2] 0
x[4,2,6,3] 1
x[4,2,7,0] 0
x[4,2,7,1] 1
x[4,2,7,2] 1
x[4,2,7,3] 0
x[4,3,0,0] 0
x[4,3,0,1] 0
x[4,3,0,2] 0
x[4,3,0,3] 0
x[4,3,1,0] 0
x[4,3,1,1] 0
x[4,3,1,2] 0
x[4,3,1,3] 0
x[4,3,2,0] 0
x[4,3,2,1] 0
x[4,3,2,2] 0
x[4,3,2,3] 0
x[4,3,3,0] 0
x[4,3,3,1] 0
x[4,3,3,2] 0
x[4,3,3,3] 0
x[4,3,4,0] 0
x[4,3,4,1] 0
x[4,3,4,2] 0
x[4,3,4,3] 0
x[4,3,5,0] 0
x[4,3,5,1] 0
x[4,3,5,2] 0
x[4,3,5,3] 0
x[4,3,6,0] 0
x[4,3,6,1] 0
x[4,3,6,2] 0
x[4,3,6,3] 1
x[4,3,7,0] 0
x[4,3,7,1] 0
x[4,3,7,2] 0
x[4,3,7,3] 0
x[5,0,0,0] 0
x[5,0,0,1] 0
x[5,0,0,2] 0
x[5,0,0,3] 0
x[5,0,1,0] 0
x[5,0,1,1] 0
x[5,0,1,2] 0
x[5,0,1,3] 0
x[5,0,2,0] 0
x[5,0,2,1] 0
x[5,0,2,2] 0
x[5,0,2,3] 0
x[5,0,3,0] 0
x[5,0,3,1] 0
x[5,0,3,2] 0
x[5,0,3,3] 0
x[5,0,4,0] 0
x[5,0,4,1] 0
x[5,0,4,2] 0
x[5,0,4,3] 0
x[5,0,5,0] 0
x[5,0,5,1] 1
x[5,0,5,2] 0
x[5,0,5,3] 0
x[5,0,6,0] 0
x[5,0,6,1] 0
x[5,0,6,2] 1
x[5,0,6,3] 0
x[5,0,7,0] 1
x[5,0,7,1] 0
x[5,0,7,2] 0
x[5,0,7,3] 1
x[5,1,0,0] 0
x[5,1,0,1] 0
x[5,1,0,2] 0
x[5,1,0,3] 0
x[5,1,1,0] 0
x[5,1,1,1] 0
x[5,1,1,2] 0
x[5,1,1,3] 0
x[5,1,2,0] 0
x[5,1,2,1] 0
x[5,1,2,2] 0
x[5,1,2,3] 0
x[5,1,3,0] 0
x[5,1,3,1] 0
x[5,1,3,2] 0
x[5,1,3,3] 0
x[5,1,4,0] 0
x[5,1,4,1] 0
x[5,1,4,2] 0
x[5,1,4,3] 0
x[5,1,5,0] 0
x[5,1,5,1] 0
x[5,1,5,2] 1
x[5,1,5,3] 0
x[5,1,6,0] 0
x[5,1,6,1] 0
x[5,1,6,2] 0
x[5,1,6,3] 0
x[5,1,7,0] 1
x[5,1,7,1] 0
x[5,1,7,2] 0
x[5,1,7,3] 1
x[5,2,0,0] 0
x[5,2,0,1] 0
x[5,2,0,2] 0
x[5,2,0,3] 0
x[5,2,1,0] 0
x[5,2,1,1] 0
x[5,2,1,2] 0
x[5,2,1,3] 0
x[5,2,2,0] 0
x[5,2,2,1] 0
x[5,2,2,2] 0
x[5,2,2,3] 0
x[5,2,3,0] 0
x[5,2,3,1] 0
x[5,2,3,2] 0
x[5,2,3,3] 0
x[5,2,4,0] 0
x[5,2,4,1] 0
x[5,2,4,2] 0
x[5,2,4,3] 0
x[5,2,5,0] 1
x[5,2,5,1] 0
x[5,2,5,2] 0
x[5,2,5,3] 0
x[5,2,6,0] 1
x[5,2,6,1] 1
x[5,2,6,2] 0
x[5,2,6,3] 0
x[5,2,7,0] 1
x[5,2,7,1] 0
x[5,2,7,2] 0
x[5,2,7,3] 1
x[5,3,0,0] 0
x[5,3,0,1] 0
x[5,3,0,2] 0
x[5,3,0,3] 0
x[5,3,1,0] 0
x[5,3,1,1] 0
x[5,3,1,2] 0
x[5,3,1,3] 0
x[5,3,2,0] 0
x[5,3,2,1] 0
x[5,3,2,2] 0
x[5,3,2,3] 0
x[5,3,3,0] 0
x[5,3,3,1] 0
x[5,3,3,2] 0
x[5,3,3,3] 0
x[5,3,4,0] 0
x[5,3,4,1] 0
x[5,3,4,2] 0
x[5,3,4,3] 0
x[5,3,5,0] 1
x[5,3,5,1] 1
x[5,3,5,2] 0
x[5,3,5,3] 0
x[5,3,6,0] 0
x[5,3,6,1] 1
x[5,3,6,2] 0
x[5,3,6,3] 0
x[5,3,7,0] 0
x[5,3,7,1] 1
x[5,3,7,2] 1
x[5,3,7,3] 0
x[6,0,0,0] 0
x[6,0,0,1] 0
x[6,0,0,2] 0
x[6,0,0,3] 0
x[6,0,1,0] 0
x[6,0,1,1] 0
x[6,0,1,2] 0
x[6,0,1,3] 0
x[6,0,2,0] 0
x[6,0,2,1] 0
x[6,0,2,2] 0
x[6,0,2,3] 0
x[6,0,3,0] 0
x[6,0,3,1] 0
x[6,0,3,2] 0
x[6,0,3,3] 0
x[6,0,4,0] 0
x[6,0,4,1] 0
x[6,0,4,2] 0
x[6,0,4,3] 0
x[6,0,5,0] 0
x[6,0,5,1] 0
x[6,0,5,2] 0
x[6,0,5,3] 0
x[6,0,6,0] 0
x[6,0,6,1] 1
x[6,0,6,2] 0
x[6,0,6,3] 1
x[6,0,7,0] 0
x[6,0,7,1] 0
x[6,0,7,2] 0
x[6,0,7,3] 0
x[6,1,0,0] 0
x[6,1,0,1] 0
x[6,1,0,2] 0
x[6,1,0,3] 0
x[6,1,1,0] 0
x[6,1,1,1] 0
x[6,1,1,2] 0
x[6,1,1,3] 0
x[6,1,2,0] 0
x[6,1,2,1] 0
x[6,1,2,2] 0
x[6,1,2,3] 0
x[6,1,3,0] 0
x[6,1,3,1] 0
x[6,1,3,2] 0
x[6,1,3,3] 0
x[6,1,4,0] 0
x[6,1,4,1] 0
x[6,1,4,2] 0
x[6,1,4,3] 0
x[6,1,5,0] 0
x[6,1,5,1] 0
x[6,1,5,2] 0
x[6,1,5,3] 0
x[6,1,6,0] 0
x[6,1,6,1] 0
x[6,1,6,2] 0
x[6,1,6,3] 1
x[6,1,7,0] 0
x[6,1,7,1] 0
x[6,1,7,2] 0
x[6,1,7,3] 0
x[6,2,0,0] 0
x[6,2,0,1] 0
x[6,2,0,2] 0
x[6,2,0,3] 0
x[6,2,1,0] 0
x[6,2,1,1] 0
x[6,2,1,2] 0
x[6,2,1,3] 0
x[6,2,2,0] 0
x[6,2,2,1] 0
x[6,2,2,2] 0
x[6,2,2,3] 0
x[6,2,3,0] 0
x[6,2,3,1] 0
x[6,2,3,2] 0
x[6,2,3,3] 0
x[6,2,4,0] 0
x[6,2,4,1] 0
x[6,2,4,2] 0
x[6,2,4,3] 0
x[6,2,5,0] 0
x[6,2,5,1] 0
x[6,2,5,2] 0
x[6,2,5,3] 0
x[6,2,6,0] 1
x[6,2,6,1] 1
x[6,2,6,2] 0
x[6,2,6,3] 0
x[6,2,7,0] 0
x[6,2,7,1] 0
x[6,2,7,2] 0
x[6,2,7,3] 0
x[6,3,0,0] 0
x[6,3,0,1] 0
x[6,3,0,2] 0
x[6,3,0,3] 0
x[6,3,1,0] 0
x[6,3,1,1] 0
x[6,3,1,2] 0
x[6,3,1,3] 0
x[6,3,2,0] 0
x[6,3,2,1] 0
x[6,3,2,2] 0
x[6,3,2,3] 0
x[6,3,3,0] 0
x[6,3,3,1] 0
x[6,3,3,2] 0
x[6,3,3,3] 0
x[6,3,4,0] 0
x[6,3,4,1] 0
x[6,3,4,2] 0
x[6,3,4,3] 0
x[6,3,5,0] 0
x[6,3,5,1] 0
x[6,3,5,2] 0
x[6,3,5,3] 0
x[6,3,6,0] 0
x[6,3,6,1] 0
x[6,3,6,2] 1
x[6,3,6,3] 0
x[6,3,7,0] 0
x[6,3,7,1] 0
x[6,3,7,2] 0
x[6,3,7,3] 0
x[7,0,0,0] 0
x[7,0,0,1] 0
x[7,0,0,2] 0
x[7,0,0,3] 0
x[7,0,1,0] 0
x[7,0,1,1] 0
x[7,0,1,2] 0
x[7,0,1,3] 0
x[7,0,2,0] 0
x[7,0,2,1] 0
x[7,0,2,2] 0
x[7,0,2,3] 0
x[7,0,3,0] 0
x[7,0,3,1] 0
x[7,0,3,2] 0
x[7,0,3,3] 0
x[7,0,4,0] 0
x[7,0,4,1] 0
x[7,0,4,2] 0
x[7,0,4,3] 0
x[7,0,5,0] 0
x[7,0,5,1] 0
x[7,0,5,2] 0
x[7,0,5,3] 0
x[7,0,6,0] 0
x[7,0,6,1] 0
x[7,0,6,2] 0
x[7,0,6,3] 0
x[7,0,7,0] 0
x[7,0,7,1] 0
x[7,0,7,2] 0
x[7,0,7,3] 1
x[7,1,0,0] 0
x[7,1,0,1] 0
x[7,1,0,2] 0
x[7,1,0,3] 0
x[7,1,1,0] 0
x[7,1,1,1] 0
x[7,1,1,2] 0
x[7,1,1,3] 0
x[7,1,2,0] 0
x[7,1,2,1] 0
x[7,1,2,2] 0
x[7,1,2,3] 0
x[7,1,3,0] 0
x[7,1,3,1] 0
x[7,1,3,2] 0
x[7,1,3,3] 0
x[7,1,4,0] 0
x[7,1,4,1] 0
x[7,1,4,2] 0
x[7,1,4,3] 0
x[7,1,5,0] 0
x[7,1,5,1] 0
x[7,1,5,2] 0
x[7,1,5,3] 0
x[7,1,6,0] 0
x[7,1,6,1] 0
x[7,1,6,2] 0
x[7,1,6,3] 0
x[7,1,7,0] 1
x[7,1,7,1] 0
x[7,1,7,2] 1
x[7,1,7,3] 1
x[7,2,0,0] 0
x[7,2,0,1] 0
x[7,2,0,2] 0
x[7,2,0,3] 0
x[7,2,1,0] 0
x[7,2,1,1] 0
x[7,2,1,2] 0
x[7,2,1,3] 0
x[7,2,2,0] 0
x[7,2,2,1] 0
x[7,2,2,2] 0
x[7,2,2,3] 0
x[7,2,3,0] 0
x[7,2,3,1] 0
x[7,2,3,2] 0
x[7,2,3,3] 0
x[7,2,4,0] 0
x[7,2,4,1] 0
x[7,2,4,2] 0
x[7,2,4,3] 0
x[7,2,5,0] 0
x[7,2,5,1] 0
x[7,2,5,2] 0
x[7,2,5,3] 0
x[7,2,6,0] 0
x[7,2,6,1] 0
x[7,2,6,2] 0
x[7,2,6,3] 0
x[7,2,7,0] 1
x[7,2,7,1] 0
x[7,2,7,2] 0
x[7,2,7,3] 0
x[7,3,0,0] 0
x[7,3,0,1] 0
x[7,3,0,2] 0
x[7,3,0,3] 0
x[7,3,1,0] 0
x[7,3,1,1] 0
x[7,3,1,2] 0
x[7,3,1,3] 0
x[7,3,2,0] 0
x[7,3,2,1] 0
x[7,3,2,2] 0
x[7,3,2,3] 0
x[7,3,3,0] 0
x[7,3,3,1] 0
x[7,3,3,2] 0
x[7,3,3,3] 0
x[7,3,4,0] 0
x[7,3,4,1] 0
x[7,3,4,2] 0
x[7,3,4,3] 0
x[7,3,5,0] 0
x[7,3,5,1] 0
x[7,3,5,2] 0
x[7,3,5,3] 0
x[7,3,6,0] 0
x[7,3,6,1] 0
x[7,3,6,2] 0
x[7,3,6,3] 0
x[7,3,7,0] 0
x[7,3,7,1] 0
x[7,3,7,2] 1
x[7,3,7,3] 0
s[0,0,3] 1.1000000000000002e+01
s[0,0,5] 0
s[0,0,6] 0
s[0,1,0] 0
s[0,1,2] 7
s[0,1,4] 0
s[0,2,2] 0
s[0,2,3] 0
s[0,2,6] 5
s[0,3,2] 2
s[0,3,3] 0
s[0,3,4] 0
s[1,0,1] 17
s[1,0,4] 0
s[1,0,6] 0
s[1,1,0] 12
s[1,1,1] 0
s[1,1,2] 0
s[1,2,2] 0
s[1,2,4] 0
s[1,2,6] 10
s[1,3,1] 0
s[1,3,4] 1.0000000000000033e+00
s[1,3,5] 0
s[2,0,0] 0
s[2,0,2] 4.2000000000000057e+01
s[2,0,5] 0
s[2,1,2] 0
s[2,1,5] 3.9000000000000057e+01
s[2,1,6] 0
s[2,2,0] 0
s[2,2,3] 3.5000000000000057e+01
s[2,2,4] 0
s[2,3,2] 3.1000000000000057e+01
s[2,3,3] 0
s[2,3,6] 0
s[3,0,1] 0
s[3,0,4] 22
s[3,0,5] 0
s[3,1,3] 0
s[3,1,4] 0
s[3,1,5] 3.0000000000000568e+00
s[3,2,2] 0
s[3,2,4] 0
s[3,2,6] 20
s[3,3,0] 1.9999999999999432e+00
s[3,3,4] 0
s[3,3,6] 0
s[4,0,0] 25
s[4,0,3] 0
s[4,0,5] 0
s[4,1,0] 0
s[4,1,5] 2.2000000000000057e+01
s[4,1,6] 0
s[4,2,2] 0
s[4,2,3] 23
s[4,2,4] 0
s[4,3,1] 0
s[4,3,2] 2.0000000000000057e+01
s[4,3,5] 0
s[5,0,0] 0
s[5,0,1] 36
s[5,0,5] 0
s[5,1,1] 3.0999999999999943e+01
s[5,1,4] 0
s[5,1,5] 0
s[5,2,1] 0
s[5,2,4] 0
s[5,2,6] 32
s[5,3,0] 34
s[5,3,3] 0
s[5,3,5] 0
s[6,0,2] 0
s[6,0,3] 0
s[6,0,4] 16
s[6,1,0] 0
s[6,1,2] 0
s[6,1,4] 7.0000000000000009e+00
s[6,2,0] 0
s[6,2,2] 0
s[6,2,5] 1.1000000000000057e+01
s[6,3,2] 1.1000000000000057e+01
s[6,3,4] 0
s[6,3,6] 0
s[7,0,1] 10
s[7,0,4] 0
s[7,0,5] 0
s[7,1,2] 0
s[7,1,3] 6
s[7,1,4] 0
s[7,2,0] 0
s[7,2,3] 0
s[7,2,4] 0
s[7,3,1] 1
s[7,3,2] 0
s[7,3,4] 0
Z_FO 95
C1217 1
C1218 0
C1219 0
C1220 1
C1221 0
C1222 0
C1223 0
C1224 1
C1225 0
C1226 0
C1227 1
C1228 0
C1229 1
C1230 0
C1231 0
C1232 0
C1233 1
C1234 0
C1235 0
C1236 0
C1237 1
C1238 1
C1239 0
C1240 0
